
Starting CP-SAT solver v9.15.6755
Parameters: random_seed: 2026072668 max_time_in_seconds: 2500 log_search_progress: true cp_model_presolve: true linearization_level: 2 num_search_workers: 4 cp_model_probing_level: 2 symmetry_level: 2

Initial satisfaction model '': (model_fingerprint: 0x64168cf49883d02a)
#Variables: 724 (598 primary variables)
  - 724 Booleans in [0,1]
#kBoolAnd: 110 (#enforced: 110) (#literals: 330)
#kBoolOr: 110 (#enforced: 110) (#literals: 220)
#kExactlyOne: 87 (#literals: 261)
#kLinear1: 42 (#enforced: 6)
#kLinear2: 336 (#enforced: 336) (#complex_domain: 110)
#kLinear3: 1'600 (#enforced: 6)
#kLinearN: 1'132 (#enforced: 243) (#terms: 9'111)

Starting presolve at 0.00s
  7.15e-04s  0.00e+00d  [DetectDominanceRelations] 
  8.86e-03s  0.00e+00d  [PresolveToFixPoint] #num_loops=3 #num_dual_strengthening=1 
  3.83e-05s  0.00e+00d  [ExtractEncodingFromLinear] #potential_supersets=75 
  2.97e-04s  0.00e+00d  [DetectDuplicateColumns] 
  1.11e-04s  0.00e+00d  [DetectDuplicateConstraints] #duplicates=15 
[Symmetry] Graph for symmetry has 4'813 nodes and 15'261 arcs.
[Symmetry] Symmetry computation done. time: 0.00126697 dtime: 0.00174729
[SAT presolve] num removable Booleans: 220 / 604
[SAT presolve] num trivial clauses: 0
[SAT presolve] [0s] clauses:2'672 literals:7'308 vars:498 one_side_vars:57 simple_definition:1 singleton_clauses:0
[SAT presolve] [0.000244243s] clauses:2'648 literals:7'235 vars:498 one_side_vars:58 simple_definition:2 singleton_clauses:1
[SAT presolve] [0.000567923s] clauses:2'417 literals:6'897 vars:385 one_side_vars:58 simple_definition:2 singleton_clauses:1
  1.36e-04s  0.00e+00d  [DetectDuplicateConstraintsWithDifferentEnforcements] 
  5.69e-03s  2.91e-03d  [Probe] #probed=1'262 #fixed_bools=1 #equiv=1 #new_binary_clauses=798 
  6.10e-04s  5.91e-04d  [MaxClique] Merged 623 constraints with 1'367 literals into 558 constraints with 1'260 literals
  9.50e-04s  0.00e+00d  [DetectDominanceRelations] 
  3.25e-03s  0.00e+00d  [PresolveToFixPoint] #num_loops=1 #num_dual_strengthening=1 
  1.17e-03s  0.00e+00d  [ProcessAtMostOneAndLinear] 
  1.02e-04s  0.00e+00d  [DetectDuplicateConstraints] 
  9.17e-05s  0.00e+00d  [DetectDuplicateConstraintsWithDifferentEnforcements] 
  2.93e-03s  9.12e-05d  [DetectDominatedLinearConstraints] #relevant_constraints=822 #num_inclusions=460 #num_redundant=9 
  1.26e-04s  0.00e+00d  [DetectDifferentVariables] 
  8.28e-04s  9.09e-05d  [ProcessSetPPC] #relevant_constraints=3'235 #num_inclusions=312 
  3.29e-04s  3.49e-05d  [TransformClausesToExactlyOne] #num_amos=610 #num_clauses=1'814 #num_transformed=2 #num_checked=1'814 
  3.59e-05s  0.00e+00d  [DetectEncodedComplexDomains] 
  3.15e-05s  9.00e-08d  [FindAlmostIdenticalLinearConstraints] #num_tested_pairs=1 
  1.01e-03s  1.37e-03d  [FindBigAtMostOneAndLinearOverlap] 
  1.47e-03s  1.13e-03d  [FindBigVerticalLinearOverlap] #blocks=2 #saved_nz=68 
  3.85e-04s  6.54e-04d  [FindBigHorizontalLinearOverlap] #linears=450 
  3.69e-04s  2.84e-05d  [MergeClauses] #num_collisions=9 #num_merges=9 #num_saved_literals=18 
  9.52e-04s  0.00e+00d  [DetectDominanceRelations] 
  3.34e-03s  0.00e+00d  [PresolveToFixPoint] #num_loops=2 #num_dual_strengthening=1 
  9.33e-04s  0.00e+00d  [DetectDominanceRelations] 
  3.14e-03s  0.00e+00d  [PresolveToFixPoint] #num_loops=1 #num_dual_strengthening=1 
  1.91e-04s  0.00e+00d  [DetectDuplicateColumns] 
  9.39e-05s  0.00e+00d  [DetectDuplicateConstraints] 
[Symmetry] Graph for symmetry has 4'583 nodes and 14'153 arcs.
[Symmetry] Symmetry computation done. time: 0.0010592 dtime: 0.00137131
[SAT presolve] num removable Booleans: 105 / 495
[SAT presolve] num trivial clauses: 0
[SAT presolve] [0s] clauses:2'407 literals:6'878 vars:472 one_side_vars:144 simple_definition:9 singleton_clauses:0
[SAT presolve] [0.000246696s] clauses:2'405 literals:6'702 vars:472 one_side_vars:145 simple_definition:89 singleton_clauses:0
[SAT presolve] [0.000386944s] clauses:2'218 literals:6'258 vars:470 one_side_vars:182 simple_definition:69 singleton_clauses:0
  1.51e-04s  0.00e+00d  [DetectDuplicateConstraintsWithDifferentEnforcements] 
  6.08e-03s  2.07e-03d  [Probe] #probed=1'274 #new_binary_clauses=812 
  4.59e-04s  3.99e-04d  [MaxClique] Merged 507 constraints with 1'115 literals into 502 constraints with 1'109 literals
  9.21e-04s  0.00e+00d  [DetectDominanceRelations] 
  3.18e-03s  0.00e+00d  [PresolveToFixPoint] #num_loops=1 #num_dual_strengthening=1 
  1.12e-03s  0.00e+00d  [ProcessAtMostOneAndLinear] 
  9.83e-05s  0.00e+00d  [DetectDuplicateConstraints] 
  9.01e-05s  0.00e+00d  [DetectDuplicateConstraintsWithDifferentEnforcements] 
  2.93e-03s  8.25e-05d  [DetectDominatedLinearConstraints] #relevant_constraints=810 #num_inclusions=428 
  1.39e-04s  0.00e+00d  [DetectDifferentVariables] 
  7.89e-04s  7.81e-05d  [ProcessSetPPC] #relevant_constraints=3'111 #num_inclusions=127 
  3.05e-04s  3.30e-05d  [TransformClausesToExactlyOne] #num_amos=501 #num_clauses=1'746 #num_checked=1'746 
  1.41e-04s  0.00e+00d  [DetectEncodedComplexDomains] 
  3.92e-05s  8.00e-08d  [FindAlmostIdenticalLinearConstraints] #num_tested_pairs=1 
  9.41e-04s  1.25e-03d  [FindBigAtMostOneAndLinearOverlap] 
  1.40e-03s  1.11e-03d  [FindBigVerticalLinearOverlap] 
  3.81e-04s  6.54e-04d  [FindBigHorizontalLinearOverlap] #linears=450 
  3.74e-04s  2.66e-05d  [MergeClauses] #num_collisions=84 #num_merges=84 #num_saved_literals=193 
  9.32e-04s  0.00e+00d  [DetectDominanceRelations] 
  3.16e-03s  0.00e+00d  [PresolveToFixPoint] #num_loops=1 #num_dual_strengthening=1 
  9.24e-04s  0.00e+00d  [DetectDominanceRelations] 
  3.15e-03s  0.00e+00d  [PresolveToFixPoint] #num_loops=1 #num_dual_strengthening=1 
  1.76e-04s  0.00e+00d  [DetectDuplicateColumns] 
  9.52e-05s  0.00e+00d  [DetectDuplicateConstraints] 
[Symmetry] Graph for symmetry has 4'321 nodes and 13'231 arcs.
[Symmetry] Symmetry computation done. time: 0.000989139 dtime: 0.00133893
[SAT presolve] num removable Booleans: 103 / 493
[SAT presolve] num trivial clauses: 0
[SAT presolve] [0s] clauses:2'208 literals:6'236 vars:470 one_side_vars:182 simple_definition:69 singleton_clauses:0
[SAT presolve] [0.000214318s] clauses:2'208 literals:6'236 vars:470 one_side_vars:182 simple_definition:69 singleton_clauses:0
[SAT presolve] [0.00028271s] clauses:2'208 literals:6'236 vars:470 one_side_vars:182 simple_definition:69 singleton_clauses:0
  1.91e-04s  0.00e+00d  [DetectDuplicateConstraintsWithDifferentEnforcements] 
  5.80e-03s  2.07e-03d  [Probe] #probed=1'274 #new_binary_clauses=812 
  4.42e-04s  3.96e-04d  [MaxClique] 
  1.00e-03s  0.00e+00d  [DetectDominanceRelations] 
  3.27e-03s  0.00e+00d  [PresolveToFixPoint] #num_loops=1 #num_dual_strengthening=1 
  1.11e-03s  0.00e+00d  [ProcessAtMostOneAndLinear] 
  1.04e-04s  0.00e+00d  [DetectDuplicateConstraints] 
  9.29e-05s  0.00e+00d  [DetectDuplicateConstraintsWithDifferentEnforcements] 
  2.90e-03s  8.25e-05d  [DetectDominatedLinearConstraints] #relevant_constraints=810 #num_inclusions=428 
  1.36e-04s  0.00e+00d  [DetectDifferentVariables] 
  7.91e-04s  7.80e-05d  [ProcessSetPPC] #relevant_constraints=3'108 #num_inclusions=124 
  3.10e-04s  3.30e-05d  [TransformClausesToExactlyOne] #num_amos=499 #num_clauses=1'746 #num_checked=1'746 
  1.43e-04s  0.00e+00d  [DetectEncodedComplexDomains] 
  4.44e-05s  8.00e-08d  [FindAlmostIdenticalLinearConstraints] #num_tested_pairs=1 
  9.58e-04s  1.25e-03d  [FindBigAtMostOneAndLinearOverlap] 
  1.38e-03s  1.04e-03d  [FindBigVerticalLinearOverlap] #blocks=2 #saved_nz=62 
  3.66e-04s  5.99e-04d  [FindBigHorizontalLinearOverlap] #linears=446 
  3.59e-04s  2.66e-05d  [MergeClauses] #num_collisions=84 #num_merges=84 #num_saved_literals=193 
  9.74e-04s  0.00e+00d  [DetectDominanceRelations] 
  3.31e-03s  0.00e+00d  [PresolveToFixPoint] #num_loops=2 #num_dual_strengthening=1 
  2.26e-05s  0.00e+00d  [MergeNoOverlap] 
  2.16e-05s  0.00e+00d  [MergeNoOverlap2D] 

Presolve summary:
  - 27 affine relations were detected.
  - rule 'TODO dual: only one blocking constraint?' was applied 839 times.
  - rule 'TODO linear inclusion: superset is equality' was applied 420 times.
  - rule 'affine: new relation' was applied 27 times.
  - rule 'at_most_one: transformed into max clique' was applied 2 times.
  - rule 'bool_or: always true' was applied 1 time.
  - rule 'bool_or: implications' was applied 59 times.
  - rule 'bool_or: only one literal' was applied 12 times.
  - rule 'bool_or: removed enforcement literal' was applied 573 times.
  - rule 'clauses: transformed into exactly one' was applied 2 times.
  - rule 'deductions: 688 stored' was applied 1 time.
  - rule 'duplicate: merged rhs of linear constraint' was applied 14 times.
  - rule 'duplicate: removed constraint' was applied 15 times.
  - rule 'enforcement: false literal' was applied 44 times.
  - rule 'enforcement: true literal' was applied 12 times.
  - rule 'exactly_one: removed literals' was applied 28 times.
  - rule 'exactly_one: satisfied' was applied 13 times.
  - rule 'exactly_one: singleton' was applied 2 times.
  - rule 'exactly_one: size two' was applied 26 times.
  - rule 'incompatible linear: add implication' was applied 129 times.
  - rule 'linear + amo: empty after processing' was applied 5 times.
  - rule 'linear + amo: extracted enforcement literal' was applied 48 times.
  - rule 'linear + amo: trivial linear constraint' was applied 1 time.
  - rule 'linear inclusion: redundant containing constraint' was applied 3 times.
  - rule 'linear inclusion: redundant included constraint' was applied 5 times.
  - rule 'linear inclusion: sparsify superset' was applied 1 time.
  - rule 'linear matrix: common vertical rectangle' was applied 4 times.
  - rule 'linear1: x in domain' was applied 36 times.
  - rule 'linear2: convert ax + by != cte to clauses' was applied 259 times.
  - rule 'linear2: convert implied ax + by == cte to clauses' was applied 118 times.
  - rule 'linear2: implied ax + by = cte has only one solution' was applied 7 times.
  - rule 'linear: always true' was applied 416 times.
  - rule 'linear: coefficient strengthening by increasing it' was applied 2 times.
  - rule 'linear: empty' was applied 1 time.
  - rule 'linear: extracted at most one (max)' was applied 1 time.
  - rule 'linear: fixed or dup variables' was applied 913 times.
  - rule 'linear: negative clause' was applied 1'304 times.
  - rule 'linear: negative reified and' was applied 68 times.
  - rule 'linear: never in domain' was applied 5 times.
  - rule 'linear: positive at most one' was applied 29 times.
  - rule 'linear: reduced variable domains' was applied 5 times.
  - rule 'linear: remapped using affine relations' was applied 19 times.
  - rule 'new_bool: integer encoding' was applied 6 times.
  - rule 'presolve: 93 unused variables removed.' was applied 1 time.
  - rule 'presolve: iteration' was applied 3 times.
  - rule 'probing: bool_or reduced to implication' was applied 18 times.
  - rule 'probing: simplified clauses' was applied 2 times.
  - rule 'setppc: bool_or in at_most_one' was applied 7 times.
  - rule 'setppc: removed dominated constraints' was applied 87 times.
  - rule 'variables: add encoding constraint' was applied 6 times.

Presolved satisfaction model '': (model_fingerprint: 0x961d1001659ea93e)
#Variables: 497 (427 primary variables)
  - 493 Booleans in [0,1]
  - 4 in [0,2]
#kAtMostOne: 37 (#literals: 175)
#kBoolAnd: 269 (#enforced: 269) (#literals: 731)
#kBoolAndClauses: 84 (#enforced: 84 #multi: 84) (#literals: 361)
#kBoolOr: 1'578 (#literals: 4'758)
#kExactlyOne: 53 (#literals: 197)
#kLinear1: 12 (#enforced: 12)
#kLinear3: 6 (#enforced: 4)
#kLinearN: 806 (#enforced: 118) (#terms: 5'575)
[Symmetry] Graph for symmetry has 4'090 nodes and 13'171 arcs.
[Symmetry] Symmetry computation done. time: 0.000897643 dtime: 0.00132368

Preloading model.
#Model   0.10s var:497/497 constraints:2845/2845

Starting search at 0.10s with 4 workers.
3 full problem subsolvers: [default_lp, max_lp, no_lp]
1 first solution subsolver: [fj]
2 interleaved subsolvers: [feasibility_pump, rins/rens]
2 helper subsolvers: [neighborhood_helper, synchronization_agent]

#Model   0.27s var:496/497 constraints:2841/2845
#Model  21.67s var:495/497 constraints:2839/2845
#Model  42.33s var:493/497 constraints:2835/2845
#Model  86.82s var:492/497 constraints:2833/2845
#Model 174.65s var:483/497 constraints:2756/2845
#Model 278.74s var:482/497 constraints:2754/2845
#Model 403.43s var:481/497 constraints:2753/2845
#Model 406.34s var:480/497 constraints:2752/2845
#Model 461.80s var:479/497 constraints:2737/2845
#Model 468.11s var:478/497 constraints:2718/2845
#Model 475.14s var:477/497 constraints:2701/2845
#Model 485.05s var:476/497 constraints:2683/2845
#Model 485.68s var:469/497 constraints:2666/2845
#Model 486.32s var:468/497 constraints:2665/2845
#Model 487.07s var:467/497 constraints:2645/2845
#Model 487.22s var:466/497 constraints:2630/2845
#Model 487.94s var:465/497 constraints:2613/2845
#Model 488.08s var:462/497 constraints:2561/2845
#Done  488.10s no_lp

Task timing                   n [     min,      max]      avg      dev     time         n [     min,      max]      avg      dev    dtime
        'default_lp':         1 [   8.13m,    8.13m]    8.13m   0.00ns    8.13m         2 [  2.23ms,    7.66m]    3.83m    3.83m    7.66m
  'feasibility_pump':      2417 [994.45us, 125.84ms]   1.66ms   2.54ms    4.02s      2416 [283.97us, 111.16ms] 332.35us   2.26ms 802.96ms
                'fj':      1800 [112.75ms, 163.65ms] 134.34ms   8.33ms    4.03m      1800 [100.00ms, 100.16ms] 100.02ms  15.27us    3.00m
            'max_lp':         1 [   8.13m,    8.13m]    8.13m   0.00ns    8.13m         2 [ 76.53ms,    9.21m]    4.60m    4.60m    9.21m
             'no_lp':         1 [   8.13m,    8.13m]    8.13m   0.00ns    8.13m         2 [  1.93ms,   14.30m]    7.15m    7.15m   14.30m
         'rins/rens':      2179 [ 27.71ms, 183.52ms] 110.98ms  41.80ms    4.03m      2179 [570.39us, 100.26ms]  67.12ms  37.82ms    2.44m

Search stats     Bools  Conflicts   Branches  Restarts  BacktrackToRoot  Backtrack   BoolPropag  IntegerPropag
  'default_lp':    493     51'245  3'862'426       311          669'738    896'825   38'843'581     47'332'793
      'max_lp':    493     47'785  4'356'006       260          747'397    982'583   44'532'540     56'380'569
       'no_lp':    493  4'603'818  7'338'969    17'170          251'725  4'838'512  414'762'267    111'626'130

SAT formula      Fixed  Equiv  Total  VarLeft  BinaryClauses  PermanentClauses  TemporaryClauses
  'default_lp':     29     11    493      453          1'736            14'338             5'153
      'max_lp':     27      8    493      458          1'916            17'350             3'328
       'no_lp':    118      9    493      366          1'796            38'374             2'738

SAT stats        ClassicMinim  LitRemoved  LitRemovedBinary  LitLearned  LitForgotten   Subsumed
  'default_lp':        42'420     392'880           184'614   1'067'121       352'946     22'277
      'max_lp':        38'371     377'358           162'110     931'702       374'044     17'307
       'no_lp':     4'074'892  65'872'499        18'032'150  99'445'436    75'396'346  1'306'677

Vivification     Clauses  Decisions  LitTrue  Subsumed  LitRemoved  DecisionReused  Conflicts
  'default_lp':  758'861  3'712'817        3    10'805     104'374         236'668      1'119
      'max_lp':  836'385  4'196'654        3    12'081     115'554         253'615      1'147
       'no_lp':  220'765  1'770'885        0    12'774     177'264          73'482      1'521

Clause deletion    at_true  l_and_not(l)  to_binary  sub_conflict  sub_extra  sub_decisions  sub_eager  sub_vivify  sub_probing  sub_inpro  blocked  eliminated  forgotten    promoted  conflicts
    'default_lp':   10'169            82         42        21'945        166            686        332      10'805        4'011      8'781        0           0     11'630      91'318     51'245
        'max_lp':    8'112             3         39        17'122        172            429        185      12'081        3'674      8'641        0           0     14'447      89'943     47'785
         'no_lp':   45'936             3         47     1'280'225     14'344         69'036     26'452      12'774       10'178     89'698        0           0  3'018'663  10'623'533  4'603'818

Lp stats         Component  Iterations  AddedCuts  OPTIMAL  DUAL_F.  DUAL_U.
  'default_lp':          1   5'225'678     22'567   56'940        0   29'756
      'max_lp':          1   2'299'698     28'778   10'507   33'592    6'070

Lp dimension        Final dimension of first component
  'default_lp':    290 rows, 340 columns, 5133 entries
      'max_lp':  1143 rows, 497 columns, 15640 entries

Lp debug         CutPropag  CutEqPropag  Adjust  Overflow      Bad  BadScaling
  'default_lp':          0            0  29'756         0  645'253           0
      'max_lp':          0            6   6'069         0  794'876           0

Lp pool          Constraints  Updates  Simplif  Merged  Shortened  Split  Strengthened      Cuts/Call
  'default_lp':       10'324    4'539   21'965       0     22'181    983             5  22'567/39'481
      'max_lp':       12'972   12'614   21'490       5     21'260  1'994           867  28'778/55'111

Lp Cut            default_lp  max_lp
          CG_FF:         434      56
           CG_K:         240       2
          CG_KL:         202       -
           CG_R:         502      25
          CG_RB:           2       -
         CG_RBP:           -       1
         Clique:           -     109
             IB:          62       5
       MIR_1_FF:         178     441
        MIR_1_K:          42      13
       MIR_1_KL:         124      18
        MIR_1_R:         148     169
      MIR_1_RLT:           -   2'816
       MIR_2_FF:         147     276
        MIR_2_K:          27      30
       MIR_2_KL:          73      23
        MIR_2_R:         170     203
       MIR_2_RB:           3       6
      MIR_2_RBP:           1       5
       MIR_3_FF:          61      69
        MIR_3_K:          14       4
       MIR_3_KL:          14       9
        MIR_3_R:         110      69
       MIR_3_RB:           5       2
      MIR_3_RBP:           2       -
       MIR_4_FF:          30      21
        MIR_4_K:           5       8
       MIR_4_KL:           9       5
        MIR_4_R:          92      67
       MIR_4_RB:           2       -
      MIR_4_RBP:           1       -
       MIR_5_FF:           9      11
        MIR_5_K:           2       2
       MIR_5_KL:           4       1
        MIR_5_R:          54      76
       MIR_5_RB:           1       1
       MIR_6_FF:           1       3
        MIR_6_R:          44      52
       MIR_6_RB:           3       2
      MIR_6_RBP:           -       3
   ZERO_HALF_FF:         110     237
    ZERO_HALF_K:          24      11
   ZERO_HALF_KL:          31       3
    ZERO_HALF_R:      19'584  23'917
  ZERO_HALF_RBP:           -       7

LNS stats       Improv/Calls  Closed  Difficulty  TimeLimit
  'rins/rens':     2179/2179     50%    7.77e-01       0.10

LS stats                                    Batches  Restarts/Perturbs   LinMoves   GenMoves  CompoundMoves  Bactracks  WeightUpdates  ScoreComputed
                             'fj_restart':       76                 35  2'312'828          0              0          0      1'877'852      2'212'563
                    'fj_restart_compound':      114                 31          0  1'200'888         83'756    558'513          2'457     19'869'730
                'fj_restart_compound_obj':       96                 35          0    987'254         80'900    453'102          1'984     16'700'904
            'fj_restart_compound_perturb':       64                 30          0    643'369         57'167    293'043          1'315     11'149'459
        'fj_restart_compound_perturb_obj':       68                 32          0    689'546         60'555    314'439          1'441     11'813'565
                       'fj_restart_decay':       72                 33  2'172'773          0              0          0         91'571        867'691
              'fj_restart_decay_compound':      117                 32          0  1'367'981        221'055    573'388          1'483     20'702'187
          'fj_restart_decay_compound_obj':      144                 40          0  1'665'614        271'831    696'809          1'842     25'442'180
      'fj_restart_decay_compound_perturb':      103                 35          0  1'147'724        186'191    480'687          1'302     18'129'774
  'fj_restart_decay_compound_perturb_obj':       95                 39          0  1'056'401        174'452    440'883          1'212     16'711'788
                   'fj_restart_decay_obj':      131                 25  3'940'876          0              0          0        166'975      1'590'278
               'fj_restart_decay_perturb':      253                 25  7'596'361          0              0          0        322'530      3'078'512
           'fj_restart_decay_perturb_obj':      161                 30  4'853'210          0              0          0        205'387      1'952'280
                         'fj_restart_obj':       79                 29  2'415'467          0              0          0      1'968'664      2'248'639
                     'fj_restart_perturb':       89                 24  2'720'237          0              0          0      2'330'885      2'456'909
                 'fj_restart_perturb_obj':      138                 34  4'095'936          0              0          0      3'583'341      3'881'965

Solution repositories    Added  Queried  Synchro
    'alternative_path':      0        0        0
      'best_solutions':      0        0        0
   'fj solution hints':    501        0      501
        'lp solutions':    440    2'179      437
                'pump':      0        0

Improving bounds shared    Num  Sym
            'default_lp':    7    0
                'max_lp':   12    0
                 'no_lp':   73    0

Clauses shared    #Exported  #Imported  #BinaryRead  #BinaryTotal
   'default_lp':      3'101     37'596          308           365
       'max_lp':      3'267     37'501          179           365
        'no_lp':     37'890      5'729          365           365

LRAT_status: NA
CpSolverResponse summary:
status: INFEASIBLE
objective: NA
best_bound: NA
integers: 353
booleans: 493
conflicts: 4603818
branches: 7338969
propagations: 414762267
integer_propagations: 111626130
restarts: 17170
lp_iterations: 0
walltime: 488.116
usertime: 488.116
deterministic_time: 2197.15
gap_integral: 0

{
  "board_size": 22,
  "parity_proved": 0,
  "target": 34,
  "child_id": 568,
  "child_count": 2640,
  "partition": "unknown_pair_x_diag_plus_twos_x_diag_minus_twos",
  "build_seconds": 0.08219218254089355,
  "workers": 4,
  "requested_seed": 2026072668,
  "effective_seed": 2026072668,
  "main_diagonal_pair": [
    1,
    17
  ],
  "pair_index": 36,
  "diag_plus_twos": 17,
  "diag_minus_twos": 16,
  "pair_excess": 26,
  "residual_certificate_slack": 86,
  "analytic_minimum_line_defect": 0,
  "analytic_defect_details": {
    "row_costs": {
      "12": 6,
      "13": 3,
      "14": 0,
      "15": 0,
      "16": 0,
      "17": 0
    },
    "column_costs": {
      "12": 6,
      "13": 3,
      "14": 0,
      "15": 0,
      "16": 0,
      "17": 0
    },
    "plus_cost": 0,
    "minus_cost": 0,
    "row_column_minimum": 0
  },
  "maximal_line_constraints": 2455,
  "analytic_infeasible": false,
  "allowed_points": 242,
  "status": "INFEASIBLE",
  "proof_method": "cp_sat_all_lines_with_certificate_profile_cuts",
  "elapsed_seconds": 488.117258310318,
  "branches": 7338969,
  "conflicts": 4603818
}
